.v 41

.l 1 Cas3
.l 2 Cas12
.l 3 IAP
.l 4 cFLIP
.l 5 TRADD
.l 6 TNFR2
.l 7 PTEN
.l 8 APC
.l 9 FADD
.l 10 Apaf1
.l 11 Mito
.l 12 JNK
.l 13 Mdm2
.l 14 Cas8
.l 15 p53
.l 16 Apoptosis
.l 17 NFkB
.l 18 PIP3
.l 19 Cas7
.l 20 PI3K
.l 21 JNKK
.l 22 Cas6
.l 23 MEKK1
.l 24 TNFR1
.l 25 NIK
.l 26 IKK
.l 27 IkB
.l 28 TRAF2
.l 29 TRAF
.l 30 AKT
.l 31 PIP2
.l 32 GFR
.l 33 A20
.l 34 RIP
.l 35 BID
.l 36 Cas9
.l 37 BclX
.l 38 DNADamageEvent
.l 39 BAD
.l 40 TNF
.l 41 GF

# 1 Cas3 
.n 1 4 3 8 14 22
1111 0
1110 0
1101 0
1100 0
1011 0
1010 0
1001 0
1000 0
0111 1
0110 1
0101 1
0100 1
0011 1
0010 1
0001 1
0000 0

# 2 Cas12 
.n 2 1 19
1 1
0 0

# 3 IAP 
.n 3 4 1 11 17 22
1111 0
1110 0
1101 0
1100 0
1011 0
1010 1
1001 0
1000 0
0111 0
0110 0
0101 0
0100 0
0011 1
0010 1
0001 0
0000 0

# 4 cFLIP 
.n 4 1 29
1 1
0 0

# 5 TRADD 
.n 5 1 24
1 1
0 0

# 6 TNFR2 
.n 6 1 40
1 1
0 0

# 7 PTEN 
.n 7 1 15
1 1
0 0

# 8 APC 
.n 8 4 3 10 11 36
1111 0
1110 0
1101 0
1100 0
1011 0
1010 0
1001 0
1000 0
0111 1
0110 0
0101 0
0100 0
0011 0
0010 0
0001 0
0000 0

# 9 FADD 
.n 9 1 5
1 1
0 0

# 10 Apaf1 
.n 10 1 15
1 1
0 0

# 11 Mito 
.n 11 2 35 37
11 0
10 1
01 0
00 0

# 12 JNK 
.n 12 1 21
1 1
0 0

# 13 Mdm2 
.n 13 2 15 30
11 1
10 1
01 1
00 0

# 14 Cas8 
.n 14 3 4 9 22
111 0
110 0
101 0
100 0
011 1
010 1
001 1
000 0

# 15 p53 
.n 15 3 12 13 38
111 0
110 0
101 1
100 1
011 0
010 0
001 1
000 0

# 16 Apoptosis 
.n 16 1 38
1 1
0 0

# 17 NFkB 
.n 17 1 27
1 0
0 1

# 18 PIP3 
.n 18 3 7 20 31
111 0
110 0
101 0
100 0
011 1
010 0
001 0
000 0

# 19 Cas7 
.n 19 3 3 8 14
111 0
110 0
101 0
100 0
011 1
010 1
001 1
000 0

# 20 PI3K 
.n 20 1 32
1 1
0 0

# 21 JNKK 
.n 21 2 23 30
11 0
10 1
01 0
00 0

# 22 Cas6 
.n 22 2 1 3
11 0
10 1
01 0
00 0

# 23 MEKK1 
.n 23 1 34
1 1
0 0

# 24 TNFR1 
.n 24 1 40
1 1
0 0

# 25 NIK 
.n 25 1 28
1 1
0 0

# 26 IKK 
.n 26 3 25 30 33
111 0
110 1
101 0
100 1
011 0
010 1
001 0
000 0

# 27 IkB 
.n 27 2 17 26
11 0
10 1
01 0
00 0

# 28 TRAF2 
.n 28 2 6 34
11 1
10 1
01 1
00 0

# 29 TRAF 
.n 29 1 5
1 1
0 0

# 30 AKT 
.n 30 1 18
1 1
0 0

# 31 PIP2 
.n 31 1 32
1 1
0 0

# 32 GFR 
.n 32 1 41
1 1
0 0

# 33 A20 
.n 33 1 17
1 1
0 0

# 34 RIP 
.n 34 1 5
1 1
0 0

# 35 BID 
.n 35 4 12 14 15 37
1111 0
1110 1
1101 0
1100 0
1011 0
1010 1
1001 0
1000 0
0111 0
0110 1
0101 0
0100 0
0011 0
0010 0
0001 0
0000 0

# 36 Cas9 
.n 36 4 1 2 3 30
1111 0
1110 0
1101 0
1100 1
1011 0
1010 0
1001 0
1000 1
0111 0
0110 0
0101 0
0100 1
0011 0
0010 0
0001 0
0000 0

# 37 BclX 
.n 37 3 15 17 39
111 0
110 0
101 0
100 0
011 0
010 1
001 0
000 0

# 38 DNADamageEvent 
.n 38 1 1
1 1
0 0

# 39 BAD 
.n 39 2 15 30
11 0
10 1
01 0
00 0

# 40 TNF 
.n 40 0

# 41 GF 
.n 41 0

.e End of file
