.v 28

.l 1 CASP8
.l 2 RIP1ub
.l 3 DISC-TNF
.l 4 BCL2
.l 5 apoptosis
.l 6 cIAP
.l 7 RIP1k
.l 8 DISC-FAS
.l 9 MOMP
.l 10 Cyt_c
.l 11 MPT
.l 12 SMAC
.l 13 RIP1
.l 14 CASP3
.l 15 ATP
.l 16 TNFR
.l 17 survival
.l 18 XIAP
.l 19 ROS
.l 20 BAX
.l 21 apoptosome
.l 22 cFLIP
.l 23 IKK
.l 24 NonACD
.l 25 NFkB
.l 26 FADD
.l 27 TNF
.l 28 FASL

# 1 CASP8 
.n 1 4 3 8 14 22
1111 0
1110 1
1101 0
1100 1
1011 0
1010 1
1001 0
1000 1
0111 0
0110 1
0101 0
0100 1
0011 0
0010 1
0001 0
0000 0

# 2 RIP1ub 
.n 2 2 6 13
11 1
10 0
01 0
00 0

# 3 DISC-TNF 
.n 3 2 16 26
11 1
10 0
01 0
00 0

# 4 BCL2 
.n 4 1 25
1 1
0 0

# 5 apoptosis 
.n 5 1 14
1 1
0 0

# 6 cIAP 
.n 6 3 6 12 25
111 0
110 0
101 1
100 1
011 0
010 0
001 1
000 0

# 7 RIP1k 
.n 7 1 13
1 1
0 0

# 8 DISC-FAS 
.n 8 2 26 28
11 1
10 0
01 0
00 0

# 9 MOMP 
.n 9 2 11 20
11 1
10 1
01 1
00 0

# 10 Cyt_c 
.n 10 1 9
1 1
0 0

# 11 MPT 
.n 11 2 4 19
11 0
10 0
01 1
00 0

# 12 SMAC 
.n 12 1 9
1 1
0 0

# 13 RIP1 
.n 13 3 1 8 16
111 0
110 0
101 0
100 0
011 1
010 1
001 1
000 0

# 14 CASP3 
.n 14 2 18 21
11 0
10 0
01 1
00 0

# 15 ATP 
.n 15 1 11
1 0
0 1

# 16 TNFR 
.n 16 1 27
1 1
0 0

# 17 survival 
.n 17 1 25
1 1
0 0

# 18 XIAP 
.n 18 2 12 25
11 0
10 0
01 1
00 0

# 19 ROS 
.n 19 3 7 11 25
111 0
110 1
101 0
100 1
011 0
010 1
001 0
000 0

# 20 BAX 
.n 20 2 1 4
11 0
10 1
01 0
00 0

# 21 apoptosome 
.n 21 3 10 15 18
111 0
110 1
101 0
100 0
011 0
010 0
001 0
000 0

# 22 cFLIP 
.n 22 1 25
1 1
0 0

# 23 IKK 
.n 23 1 2
1 1
0 0

# 24 NonACD 
.n 24 1 15
1 0
0 1

# 25 NFkB 
.n 25 2 14 23
11 0
10 0
01 1
00 0

# 26 FADD 
.n 26 0

# 27 TNF 
.n 27 0

# 28 FASL 
.n 28 0

.e End of file
