.v 30

.l 1 apoptosis
.l 2 apoptosome
.l 3 ATP
.l 4 BAX
.l 5 BCL2
.l 6 CASP3
.l 7 CASP8
.l 8 cFLIP
.l 9 cIAP
.l 10 Cyt_c
.l 11 DISC_FAS
.l 12 DISC_TNF
.l 13 IKK
.l 14 MOMP
.l 15 MPT
.l 16 NFkB
.l 17 NonACD
.l 18 RIP1
.l 19 RIP1k
.l 20 RIP1ub
.l 21 ROS
.l 22 SMAC
.l 23 survival
.l 24 TNFR
.l 25 XIAP
.l 26 DISC-FAS
.l 27 DISC-TNF
.l 28 FADD
.l 29 FASL
.l 30 TNF

# 1 apoptosis 
.n 1 1 6
0 0
1 1

# 2 apoptosome 
.n 2 3 3 10 25
000 0
001 0
010 0
011 0
100 0
101 0
110 1
111 0

# 3 ATP 
.n 3 1 15
0 1
1 0

# 4 BAX 
.n 4 2 5 7
00 0
01 1
10 0
11 0

# 5 BCL2 
.n 5 1 16
0 0
1 1

# 6 CASP3 
.n 6 2 25 2
00 0
01 1
10 0
11 0

# 7 CASP8 
.n 7 4 6 26 27 8
0000 0
0001 0
0010 1
0011 0
0100 1
0101 0
0110 1
0111 0
1000 1
1001 0
1010 1
1011 0
1100 1
1101 0
1110 1
1111 0

# 8 cFLIP 
.n 8 1 16
0 0
1 1

# 9 cIAP 
.n 9 3 16 22 9
000 0
001 1
010 0
011 0
100 1
101 1
110 0
111 0

# 10 Cyt_c 
.n 10 1 14
0 0
1 1

# 26 DISC-FAS 
.n 26 2 28 29
00 0
01 0
10 0
11 1

# 27 DISC-TNF 
.n 27 2 28 24
00 0
01 0
10 0
11 1

# 13 IKK 
.n 13 1 20
0 0
1 1

# 14 MOMP 
.n 14 2 4 15
00 0
01 1
10 1
11 1

# 15 MPT 
.n 15 2 5 21
00 0
01 1
10 0
11 0

# 16 NFkB 
.n 16 2 6 13
00 0
01 1
10 0
11 0

# 17 NonACD 
.n 17 1 3
0 1
1 0

# 18 RIP1 
.n 18 3 7 26 24
000 0
001 1
010 1
011 1
100 0
101 0
110 0
111 0

# 19 RIP1k 
.n 19 1 18
0 0
1 1

# 20 RIP1ub 
.n 20 2 18 9
00 0
01 0
10 0
11 1

# 21 ROS 
.n 21 3 15 16 19
000 0
001 1
010 0
011 0
100 1
101 1
110 0
111 0

# 22 SMAC 
.n 22 1 14
0 0
1 1

# 23 survival 
.n 23 1 16
0 0
1 1

# 24 TNFR 
.n 24 1 30
0 0
1 1

# 25 XIAP 
.n 25 2 16 22
00 0
01 0
10 1
11 0

# 26 DISC-FAS 
.n 26 0

# 27 DISC-TNF 
.n 27 0

# 28 FADD 
.n 28 0

# 29 FASL 
.n 29 0

# 30 TNF 
.n 30 0

.e End of file
