.v 86

.l 1 a2m_gfbg
.l 2 akt
.l 3 anti_apoptotic
.l 4 bad
.l 5 ca
.l 6 camk24
.l 7 cam_ca
.l 8 casp9
.l 9 cebpb
.l 10 cebpd
.l 11 cfos
.l 12 cmyc
.l 13 crp
.l 14 dum_cebp_saa
.l 15 dum_gab1_kin_or_jak1_gab1_mem_p
.l 16 dum_gp80_a_il6rc
.l 17 dum_il6rc_p_or_grb2_vav
.l 18 dum_mtorc1_or_pkcd_stat3_ta
.l 19 dum_pkcd_camk24_stat1_ta
.l 20 erk12
.l 21 fkhr
.l 22 gab1_mem
.l 23 gab1_mem_p
.l 24 gp130s
.l 25 gp80m_a
.l 26 gp80s_a
.l 27 grb2_sos
.l 28 gsk3
.l 29 il6rc
.l 30 il6rc_p
.l 31 ip3
.l 32 ir
.l 33 irs1_ps
.l 34 irs1_py
.l 35 jak1
.l 36 junb
.l 37 mek1
.l 38 mek4
.l 39 mek6
.l 40 mekk1
.l 41 mk2
.l 42 mtorc1
.l 43 mtorc2
.l 44 p38
.l 45 p70s6k
.l 46 pi3k
.l 47 pip3
.l 48 pkcd
.l 49 plcg
.l 50 pro_hgf
.l 51 pro_proliferative
.l 52 rac1
.l 53 raf1
.l 54 ras
.l 55 ras_gap
.l 56 saa
.l 57 shp2
.l 58 shp2_a
.l 59 socs1
.l 60 socs3
.l 61 stat1_py
.l 62 stat1_ta
.l 63 stat3_py
.l 64 stat3_ta
.l 65 tdum_shp2_il6rc_p
.l 66 tdum_shp2_stat1_py
.l 67 tdum_shp2_stat3_py
.l 68 tdum_socs1_vav
.l 69 tdum_socs3_shp2
.l 70 var_app
.l 71 vav
.l 72 nfkb
.l 73 pdk1
.l 74 phlpp
.l 75 ship
.l 76 gab1_kin
.l 77 il6
.l 78 gp130m
.l 79 mtor
.l 80 pten
.l 81 ros
.l 82 sirp1a
.l 83 cyt_ptpe
.l 84 pias1
.l 85 slim
.l 86 pias3

# 1 a2m_gfbg 
.n 1 2 72 64
00 0
01 1
10 0
11 0

# 2 akt 
.n 2 5 43 73 74 47 75
00000 0
00001 0
00010 0
00011 0
00100 0
00101 0
00110 0
00111 0
01000 0
01001 0
01010 0
01011 0
01100 0
01101 0
01110 0
01111 0
10000 0
10001 0
10010 0
10011 0
10100 0
10101 0
10110 0
10111 0
11000 0
11001 0
11010 1
11011 0
11100 0
11101 0
11110 1
11111 0

# 3 anti_apoptotic 
.n 3 4 4 8 28 64
0000 0
0001 1
0010 0
0011 0
0100 0
0101 0
0110 0
0111 0
1000 0
1001 0
1010 0
1011 0
1100 0
1101 0
1110 0
1111 0

# 4 bad 
.n 4 1 2
0 1
1 0

# 5 ca 
.n 5 1 31
0 0
1 1

# 6 camk24 
.n 6 1 7
0 0
1 1

# 7 cam_ca 
.n 7 1 5
0 0
1 1

# 8 casp9 
.n 8 1 2
0 1
1 0

# 9 cebpb 
.n 9 2 44 64
00 0
01 1
10 1
11 1

# 10 cebpd 
.n 10 1 64
0 0
1 1

# 11 cfos 
.n 11 1 64
0 0
1 1

# 12 cmyc 
.n 12 1 64
0 0
1 1

# 13 crp 
.n 13 3 11 72 64
000 0
001 0
010 0
011 0
100 0
101 1
110 0
111 0

# 14 dum_cebp_saa 
.n 14 2 9 10
00 0
01 1
10 1
11 1

# 15 dum_gab1_kin_or_jak1_gab1_mem_p 
.n 15 2 76 35
00 0
01 1
10 1
11 1

# 16 dum_gp80_a_il6rc 
.n 16 2 25 26
00 0
01 1
10 1
11 1

# 17 dum_il6rc_p_or_grb2_vav 
.n 17 2 27 30
00 0
01 1
10 1
11 1

# 18 dum_mtorc1_or_pkcd_stat3_ta 
.n 18 2 42 48
00 0
01 1
10 1
11 1

# 19 dum_pkcd_camk24_stat1_ta 
.n 19 2 6 48
00 0
01 1
10 1
11 1

# 20 erk12 
.n 20 1 37
0 0
1 1

# 21 fkhr 
.n 21 1 2
0 1
1 0

# 22 gab1_mem 
.n 22 3 20 27 47
000 0
001 0
010 1
011 1
100 0
101 1
110 1
111 1

# 23 gab1_mem_p 
.n 23 2 15 22
00 0
01 0
10 0
11 1

# 24 gp130s 
.n 24 2 6 41
00 1
01 0
10 0
11 0

# 25 gp80m_a 
.n 25 1 77
0 0
1 1

# 26 gp80s_a 
.n 26 2 24 77
00 0
01 1
10 0
11 0

# 27 grb2_sos 
.n 27 2 30 57
00 0
01 1
10 1
11 1

# 28 gsk3 
.n 28 1 2
0 1
1 0

# 29 il6rc 
.n 29 2 16 78
00 0
01 0
10 0
11 1

# 30 il6rc_p 
.n 30 4 29 35 57 58
0000 0
0001 0
0010 0
0011 0
0100 0
0101 0
0110 0
0111 0
1000 0
1001 0
1010 0
1011 0
1100 1
1101 0
1110 0
1111 0

# 31 ip3 
.n 31 1 49
0 0
1 1

# 32 ir 
.n 32 2 59 60
00 1
01 0
10 0
11 0

# 33 irs1_ps 
.n 33 2 20 48
00 0
01 1
10 1
11 1

# 34 irs1_py 
.n 34 3 33 57 58
000 1
001 0
010 0
011 0
100 0
101 0
110 0
111 0

# 35 jak1 
.n 35 4 57 58 59 60
0000 1
0001 0
0010 0
0011 0
0100 0
0101 0
0110 0
0111 0
1000 0
1001 0
1010 0
1011 0
1100 0
1101 0
1110 0
1111 0

# 36 junb 
.n 36 1 64
0 0
1 1

# 37 mek1 
.n 37 1 53
0 0
1 1

# 38 mek4 
.n 38 1 40
0 0
1 1

# 39 mek6 
.n 39 1 30
0 0
1 1

# 40 mekk1 
.n 40 1 52
0 0
1 1

# 41 mk2 
.n 41 1 44
0 0
1 1

# 42 mtorc1 
.n 42 1 79
0 0
1 1

# 43 mtorc2 
.n 43 1 79
0 0
1 1

# 44 p38 
.n 44 1 39
0 0
1 1

# 45 p70s6k 
.n 45 3 2 20 42
000 0
001 1
010 1
011 1
100 1
101 1
110 1
111 1

# 46 pi3k 
.n 46 3 23 54 58
000 0
001 0
010 1
011 1
100 1
101 0
110 1
111 1

# 47 pip3 
.n 47 2 46 80
00 0
01 0
10 1
11 0

# 48 pkcd 
.n 48 1 38
0 0
1 1

# 49 plcg 
.n 49 1 23
0 0
1 1

# 50 pro_hgf 
.n 50 2 9 10
00 0
01 1
10 1
11 1

# 51 pro_proliferative 
.n 51 6 6 9 20 21 45 64
000000 1
000001 1
000010 1
000011 1
000100 0
000101 0
000110 0
000111 0
001000 1
001001 1
001010 1
001011 1
001100 0
001101 0
001110 0
001111 0
010000 0
010001 1
010010 1
010011 1
010100 0
010101 0
010110 0
010111 0
011000 1
011001 1
011010 1
011011 1
011100 0
011101 0
011110 0
011111 0
100000 1
100001 1
100010 1
100011 1
100100 0
100101 0
100110 0
100111 0
101000 1
101001 1
101010 1
101011 1
101100 0
101101 0
101110 0
101111 0
110000 1
110001 1
110010 1
110011 1
110100 0
110101 0
110110 0
110111 0
111000 1
111001 1
111010 1
111011 1
111100 0
111101 0
111110 0
111111 0

# 52 rac1 
.n 52 1 71
0 0
1 1

# 53 raf1 
.n 53 1 54
0 0
1 1

# 54 ras 
.n 54 2 27 55
00 0
01 0
10 1
11 0

# 55 ras_gap 
.n 55 2 23 58
00 0
01 0
10 1
11 0

# 56 saa 
.n 56 3 14 72 64
000 0
001 0
010 0
011 0
100 0
101 0
110 0
111 1

# 57 shp2 
.n 57 3 30 35 60
000 0
001 0
010 0
011 0
100 0
101 0
110 1
111 0

# 58 shp2_a 
.n 58 4 23 81 57 82
0000 0
0001 0
0010 0
0011 0
0100 0
0101 0
0110 0
0111 0
1000 0
1001 0
1010 1
1011 0
1100 0
1101 0
1110 1
1111 0

# 59 socs1 
.n 59 1 64
0 0
1 1

# 60 socs3 
.n 60 4 20 72 44 64
0000 0
0001 1
0010 1
0011 1
0100 1
0101 1
0110 1
0111 1
1000 1
1001 1
1010 1
1011 1
1100 1
1101 1
1110 1
1111 1

# 61 stat1_py 
.n 61 5 83 30 35 57 58
00000 0
00001 0
00010 0
00011 0
00100 0
00101 0
00110 0
00111 0
01000 0
01001 0
01010 0
01011 0
01100 1
01101 1
01110 1
01111 1
10000 0
10001 0
10010 0
10011 0
10100 0
10101 0
10110 0
10111 0
11000 0
11001 0
11010 0
11011 0
11100 0
11101 0
11110 0
11111 0

# 62 stat1_ta 
.n 62 4 19 84 85 61
0000 0
0001 0
0010 0
0011 0
0100 0
0101 0
0110 0
0111 0
1000 0
1001 1
1010 0
1011 0
1100 0
1101 1
1110 0
1111 0

# 63 stat3_py 
.n 63 5 83 30 35 57 58
00000 0
00001 0
00010 0
00011 0
00100 0
00101 0
00110 0
00111 0
01000 0
01001 0
01010 0
01011 0
01100 1
01101 1
01110 1
01111 1
10000 0
10001 0
10010 0
10011 0
10100 0
10101 0
10110 0
10111 0
11000 0
11001 0
11010 0
11011 0
11100 0
11101 0
11110 0
11111 0

# 64 stat3_ta 
.n 64 4 18 86 85 63
0000 0
0001 0
0010 0
0011 0
0100 0
0101 0
0110 0
0111 0
1000 0
1001 1
1010 0
1011 0
1100 0
1101 1
1110 0
1111 0

# 65 tdum_shp2_il6rc_p 
.n 65 2 57 58
00 0
01 1
10 1
11 1

# 66 tdum_shp2_stat1_py 
.n 66 2 57 58
00 0
01 1
10 1
11 1

# 67 tdum_shp2_stat3_py 
.n 67 2 57 58
00 0
01 1
10 1
11 1

# 68 tdum_socs1_vav 
.n 68 1 59
0 0
1 1

# 69 tdum_socs3_shp2 
.n 69 1 60
0 0
1 1

# 70 var_app 
.n 70 2 9 10
00 0
01 1
10 1
11 1

# 71 vav 
.n 71 2 17 59
00 0
01 0
10 1
11 0

# 72 nfkb 
.n 72 0

# 73 pdk1 
.n 73 0

# 74 phlpp 
.n 74 0

# 75 ship 
.n 75 0

# 76 gab1_kin 
.n 76 0

# 77 il6 
.n 77 0

# 78 gp130m 
.n 78 0

# 79 mtor 
.n 79 0

# 80 pten 
.n 80 0

# 81 ros 
.n 81 0

# 82 sirp1a 
.n 82 0

# 83 cyt_ptpe 
.n 83 0

# 84 pias1 
.n 84 0

# 85 slim 
.n 85 0

# 86 pias3 
.n 86 0

.e End of file
