.v 53

.l 1 PLCG
.l 2 EGFR
.l 3 JUN
.l 4 SMAD
.l 5 CREB
.l 6 AKT
.l 7 MDM2
.l 8 FGFR3
.l 9 TAOK
.l 10 TAK1
.l 11 p14
.l 12 RAS
.l 13 ERK
.l 14 PDK1
.l 15 DUSP1
.l 16 Growth_Arrest
.l 17 RSK
.l 18 PTEN
.l 19 ELK1
.l 20 Apoptosis
.l 21 p53
.l 22 FRS2
.l 23 p21
.l 24 GAB1
.l 25 MEK1_2
.l 26 SPRY
.l 27 PKC
.l 28 RAF
.l 29 MYC
.l 30 PI3K
.l 31 AP1
.l 32 p70
.l 33 MSK
.l 34 ATF2
.l 35 FOXO3
.l 36 BCL2
.l 37 Proliferation
.l 38 SOS
.l 39 MAP3K1_3
.l 40 JNK
.l 41 PPP2CA
.l 42 MAX
.l 43 FOS
.l 44 MTK1
.l 45 GADD45
.l 46 p38
.l 47 ATM
.l 48 GRB2
.l 49 TGFBR
.l 50 TGFBR_stimulus
.l 51 DNA_damage
.l 52 FGFR3_stimulus
.l 53 EGFR_stimulus

# 1 PLCG 
.n 1 2 2 8
11 1
10 1
01 1
00 0

# 2 EGFR 
.n 2 4 26 27 48 53
1111 0
1110 0
1101 0
1100 0
1011 0
1010 0
1001 1
1000 1
0111 0
0110 0
0101 0
0100 0
0011 0
0010 0
0001 1
0000 0

# 3 JUN 
.n 3 1 40
1 1
0 0

# 4 SMAD 
.n 4 1 49
1 1
0 0

# 5 CREB 
.n 5 1 33
1 1
0 0

# 6 AKT 
.n 6 2 14 18
11 0
10 1
01 0
00 0

# 7 MDM2 
.n 7 3 6 11 21
111 0
110 0
101 1
100 1
011 0
010 0
001 1
000 0

# 8 FGFR3 
.n 8 3 27 48 52
111 0
110 0
101 0
100 0
011 0
010 0
001 1
000 0

# 9 TAOK 
.n 9 1 47
1 1
0 0

# 10 TAK1 
.n 10 1 49
1 1
0 0

# 11 p14 
.n 11 1 29
1 1
0 0

# 12 RAS 
.n 12 2 1 38
11 1
10 1
01 1
00 0

# 13 ERK 
.n 13 1 25
1 1
0 0

# 14 PDK1 
.n 14 1 30
1 1
0 0

# 15 DUSP1 
.n 15 1 5
1 1
0 0

# 16 Growth_Arrest 
.n 16 1 23
1 1
0 0

# 17 RSK 
.n 17 1 13
1 1
0 0

# 18 PTEN 
.n 18 1 21
1 1
0 0

# 19 ELK1 
.n 19 3 13 40 46
111 1
110 1
101 1
100 1
011 1
010 1
001 1
000 0

# 20 Apoptosis 
.n 20 4 13 21 35 36
1111 0
1110 0
1101 0
1100 0
1011 0
1010 0
1001 0
1000 0
0111 0
0110 1
0101 0
0100 0
0011 0
0010 0
0001 0
0000 0

# 21 p53 
.n 21 3 7 46 47
111 1
110 0
101 0
100 0
011 1
010 1
001 1
000 0

# 22 FRS2 
.n 22 3 8 26 48
111 0
110 0
101 0
100 1
011 0
010 0
001 0
000 0

# 23 p21 
.n 23 2 6 21
11 0
10 0
01 1
00 0

# 24 GAB1 
.n 24 2 30 48
11 1
10 1
01 1
00 0

# 25 MEK1_2 
.n 25 4 28 31 39 41
1111 0
1110 0
1101 0
1100 0
1011 0
1010 1
1001 0
1000 1
0111 0
0110 0
0101 0
0100 0
0011 0
0010 1
0001 0
0000 0

# 26 SPRY 
.n 26 1 13
1 1
0 0

# 27 PKC 
.n 27 1 1
1 1
0 0

# 28 RAF 
.n 28 4 6 12 13 27
1111 0
1110 0
1101 0
1100 0
1011 0
1010 0
1001 0
1000 0
0111 0
0110 0
0101 1
0100 1
0011 0
0010 0
0001 1
0000 0

# 29 MYC 
.n 29 3 6 33 42
111 1
110 1
101 0
100 0
011 1
010 0
001 0
000 0

# 30 PI3K 
.n 30 3 12 24 38
111 1
110 1
101 1
100 0
011 1
010 1
001 0
000 0

# 31 AP1 
.n 31 3 3 34 43
111 1
110 1
101 1
100 0
011 0
010 0
001 0
000 0

# 32 p70 
.n 32 2 13 14
11 1
10 0
01 0
00 0

# 33 MSK 
.n 33 2 13 46
11 1
10 1
01 1
00 0

# 34 ATF2 
.n 34 2 40 46
11 1
10 1
01 1
00 0

# 35 FOXO3 
.n 35 2 6 40
11 0
10 0
01 1
00 0

# 36 BCL2 
.n 36 2 5 6
11 1
10 0
01 0
00 0

# 37 Proliferation 
.n 37 3 23 29 32
111 0
110 0
101 0
100 0
011 1
010 0
001 0
000 0

# 38 SOS 
.n 38 2 17 48
11 0
10 0
01 1
00 0

# 39 MAP3K1_3 
.n 39 1 12
1 1
0 0

# 40 JNK 
.n 40 5 9 10 15 39 44
11111 1
11110 1
11101 1
11100 1
11011 1
11010 1
11001 1
11000 1
10111 1
10110 1
10101 1
10100 0
10011 1
10010 1
10001 1
10000 1
01111 1
01110 1
01101 1
01100 0
01011 1
01010 1
01001 1
01000 1
00111 1
00110 0
00101 0
00100 0
00011 1
00010 1
00001 1
00000 0

# 41 PPP2CA 
.n 41 1 46
1 1
0 0

# 42 MAX 
.n 42 1 46
1 1
0 0

# 43 FOS 
.n 43 4 5 13 17 19
1111 1
1110 1
1101 0
1100 0
1011 0
1010 0
1001 0
1000 0
0111 1
0110 0
0101 0
0100 0
0011 0
0010 0
0001 0
0000 0

# 44 MTK1 
.n 44 1 45
1 1
0 0

# 45 GADD45 
.n 45 2 4 21
11 1
10 1
01 1
00 0

# 46 p38 
.n 46 5 9 10 15 39 44
11111 1
11110 1
11101 1
11100 1
11011 1
11010 1
11001 1
11000 1
10111 1
10110 1
10101 1
10100 0
10011 1
10010 1
10001 1
10000 1
01111 1
01110 1
01101 1
01100 0
01011 1
01010 1
01001 1
01000 1
00111 1
00110 0
00101 0
00100 0
00011 1
00010 1
00001 1
00000 0

# 47 ATM 
.n 47 1 51
1 1
0 0

# 48 GRB2 
.n 48 3 2 22 49
111 1
110 1
101 1
100 1
011 1
010 1
001 1
000 0

# 49 TGFBR 
.n 49 1 50
1 1
0 0

# 50 TGFBR_stimulus 
.n 50 0

# 51 DNA_damage 
.n 51 0

# 52 FGFR3_stimulus 
.n 52 0

# 53 EGFR_stimulus 
.n 53 0

.e End of file
