.v 51

.l 1 JAK
.l 2 cFos
.l 3 TAK1
.l 4 MKK
.l 5 Oncogene
.l 6 RB
.l 7 CEBPbeta
.l 8 NFkB
.l 9 CDK4
.l 10 ATR
.l 11 CHK1
.l 12 IRAK
.l 13 ATM
.l 14 IL1
.l 15 MEKK
.l 16 ERK1_2
.l 17 MEK1_2
.l 18 Elk1
.l 19 p53
.l 20 IkB
.l 21 CHK2
.l 22 TRAF6
.l 23 SOCS3
.l 24 TAB
.l 25 CDK2
.l 26 cJun
.l 27 MDM2
.l 28 p38
.l 29 p16INK4
.l 30 HIF1
.l 31 IL6
.l 32 JNK
.l 33 NIK
.l 34 GP130
.l 35 IL6R
.l 36 IKK
.l 37 PI3K
.l 38 AP1
.l 39 Akt
.l 40 mTOR
.l 41 E2F
.l 42 p21
.l 43 IL8
.l 44 pRB
.l 45 IL1R
.l 46 NEMO
.l 47 MKP1
.l 48 MyD88
.l 49 STAT3
.l 50 Hypoxia
.l 51 DNAD

# 1 JAK 
.n 1 2 23 35
11 0
10 0
01 1
00 0

# 2 cFos 
.n 2 5 7 18 28 32 49
11111 1
11110 1
11101 1
11100 1
11011 1
11010 1
11001 1
11000 1
10111 1
10110 1
10101 1
10100 1
10011 1
10010 1
10001 1
10000 1
01111 1
01110 1
01101 1
01100 1
01011 1
01010 1
01001 1
01000 1
00111 1
00110 1
00101 1
00100 1
00011 1
00010 1
00001 1
00000 0

# 3 TAK1 
.n 3 2 22 24
11 1
10 1
01 1
00 0

# 4 MKK 
.n 4 2 3 15
11 1
10 1
01 1
00 0

# 5 Oncogene 
.n 5 2 31 43
11 1
10 1
01 1
00 0

# 6 RB 
.n 6 3 9 25 44
111 0
110 0
101 0
100 0
011 0
010 0
001 0
000 1

# 7 CEBPbeta 
.n 7 1 18
1 1
0 0

# 8 NFkB 
.n 8 2 20 36
11 0
10 0
01 1
00 0

# 9 CDK4 
.n 9 2 29 42
11 0
10 0
01 0
00 1

# 10 ATR 
.n 10 1 51
1 1
0 0

# 11 CHK1 
.n 11 1 10
1 1
0 0

# 12 IRAK 
.n 12 3 12 45 48
111 1
110 1
101 1
100 1
011 1
010 1
001 1
000 0

# 13 ATM 
.n 13 1 51
1 1
0 0

# 14 IL1 
.n 14 1 8
1 1
0 0

# 15 MEKK 
.n 15 1 22
1 1
0 0

# 16 ERK1_2 
.n 16 2 17 31
11 1
10 0
01 0
00 0

# 17 MEK1_2 
.n 17 2 31 34
11 1
10 0
01 0
00 0

# 18 Elk1 
.n 18 1 16
1 1
0 0

# 19 p53 
.n 19 4 11 13 21 27
1111 0
1110 1
1101 0
1100 1
1011 0
1010 1
1001 0
1000 1
0111 0
0110 1
0101 0
0100 1
0011 0
0010 1
0001 0
0000 0

# 20 IkB 
.n 20 4 8 20 36 46
1111 0
1110 1
1101 1
1100 1
1011 0
1010 1
1001 1
1000 1
0111 0
0110 1
0101 1
0100 1
0011 0
0010 0
0001 0
0000 0

# 21 CHK2 
.n 21 1 13
1 1
0 0

# 22 TRAF6 
.n 22 1 12
1 1
0 0

# 23 SOCS3 
.n 23 1 49
1 1
0 0

# 24 TAB 
.n 24 2 12 22
11 1
10 1
01 1
00 0

# 25 CDK2 
.n 25 2 41 42
11 0
10 1
01 0
00 0

# 26 cJun 
.n 26 5 2 7 16 28 32
11111 1
11110 1
11101 1
11100 1
11011 1
11010 1
11001 1
11000 1
10111 1
10110 1
10101 1
10100 1
10011 1
10010 1
10001 1
10000 0
01111 0
01110 0
01101 0
01100 0
01011 0
01010 0
01001 0
01000 0
00111 0
00110 0
00101 0
00100 0
00011 0
00010 0
00001 0
00000 0

# 27 MDM2 
.n 27 2 13 19
11 0
10 0
01 1
00 0

# 28 p38 
.n 28 2 4 47
11 0
10 1
01 0
00 0

# 29 p16INK4 
.n 29 2 5 51
11 1
10 1
01 1
00 0

# 30 HIF1 
.n 30 2 19 50
11 0
10 0
01 1
00 0

# 31 IL6 
.n 31 3 7 8 16
111 1
110 1
101 1
100 1
011 1
010 1
001 1
000 0

# 32 JNK 
.n 32 2 4 47
11 0
10 1
01 0
00 0

# 33 NIK 
.n 33 1 3
1 1
0 0

# 34 GP130 
.n 34 1 31
1 1
0 0

# 35 IL6R 
.n 35 1 31
1 1
0 0

# 36 IKK 
.n 36 3 33 39 46
111 1
110 1
101 1
100 1
011 1
010 1
001 1
000 0

# 37 PI3K 
.n 37 1 1
1 1
0 0

# 38 AP1 
.n 38 2 2 26
11 1
10 0
01 0
00 0

# 39 Akt 
.n 39 1 37
1 1
0 0

# 40 mTOR 
.n 40 1 39
1 1
0 0

# 41 E2F 
.n 41 3 6 41 44
111 0
110 0
101 0
100 0
011 1
010 1
001 1
000 0

# 42 p21 
.n 42 2 19 30
11 1
10 1
01 1
00 0

# 43 IL8 
.n 43 3 7 8 38
111 1
110 1
101 1
100 1
011 1
010 1
001 1
000 0

# 44 pRB 
.n 44 2 9 25
11 1
10 1
01 1
00 0

# 45 IL1R 
.n 45 1 14
1 1
0 0

# 46 NEMO 
.n 46 1 51
1 1
0 0

# 47 MKP1 
.n 47 1 38
1 1
0 0

# 48 MyD88 
.n 48 1 45
1 1
0 0

# 49 STAT3 
.n 49 4 1 2 26 40
1111 1
1110 1
1101 1
1100 1
1011 1
1010 1
1001 1
1000 1
0111 1
0110 1
0101 1
0100 0
0011 1
0010 0
0001 1
0000 0

# 50 Hypoxia 
.n 50 0

# 51 DNAD 
.n 51 0

.e End of file
