.v 60

.l 1 A20
.l 2 Apoptosis
.l 3 BclxL
.l 4 BID
.l 5 Caspase
.l 6 Ceramide
.l 7 CREB
.l 8 CTLA4
.l 9 Cytoskeleton_signaling
.l 10 DISC
.l 11 ERK
.l 12 Fas
.l 13 FasL
.l 14 FasT
.l 15 FLIP
.l 16 FYN
.l 17 GAP
.l 18 GPCR
.l 19 GRB2
.l 20 GZMB
.l 21 IAP
.l 22 IFNG
.l 23 IFNGT
.l 24 IL2
.l 25 IL2RA
.l 26 IL2RAT
.l 27 IL2RB
.l 28 IL2RBT
.l 29 JAK
.l 30 LCK
.l 31 MCL1
.l 32 MEK
.l 33 NFAT
.l 34 NFKB
.l 35 P2
.l 36 P27
.l 37 PDGFR
.l 38 PI3K
.l 39 PLCG1
.l 40 Proliferation
.l 41 RANTES
.l 42 RAS
.l 43 S1P
.l 44 sFas
.l 45 SMAD
.l 46 SOCS
.l 47 SPHK1
.l 48 STAT3
.l 49 TBET
.l 50 TCR
.l 51 TNF
.l 52 TPL2
.l 53 TRADD
.l 54 ZAP70
.l 55 IL15
.l 56 Stimuli
.l 57 CD45
.l 58 Stimuli2
.l 59 PDGF
.l 60 TAX

# 1 A20 
.n 1 1 34
0 0
1 1

# 2 Apoptosis 
.n 2 2 2 5
00 0
01 1
10 1
11 1

# 3 BclxL 
.n 3 5 4 10 20 34 48
00000 0
00001 1
00010 1
00011 1
00100 0
00101 0
00110 0
00111 0
01000 0
01001 0
01010 0
01011 0
01100 0
01101 0
01110 0
01111 0
10000 0
10001 0
10010 0
10011 0
10100 0
10101 0
10110 0
10111 0
11000 0
11001 0
11010 0
11011 0
11100 0
11101 0
11110 0
11111 0

# 4 BID 
.n 4 4 3 5 20 31
0000 0
0001 0
0010 1
0011 0
0100 1
0101 0
0110 1
0111 0
1000 0
1001 0
1010 0
1011 0
1100 0
1101 0
1110 0
1111 0

# 5 Caspase 
.n 5 5 4 10 20 21 53
00000 0
00001 0
00010 0
00011 0
00100 0
00101 0
00110 0
00111 0
01000 1
01001 1
01010 1
01011 1
01100 1
01101 1
01110 1
01111 1
10000 0
10001 1
10010 0
10011 0
10100 1
10101 1
10110 0
10111 0
11000 1
11001 1
11010 1
11011 1
11100 1
11101 1
11110 1
11111 1

# 6 Ceramide 
.n 6 2 12 43
00 0
01 0
10 1
11 0

# 7 CREB 
.n 7 2 11 22
00 0
01 0
10 0
11 1

# 8 CTLA4 
.n 8 1 50
0 0
1 1

# 9 Cytoskeleton_signaling 
.n 9 1 16
0 0
1 1

# 10 DISC 
.n 10 5 6 15 12 14 24
00000 0
00001 0
00010 0
00011 0
00100 0
00101 0
00110 1
00111 1
01000 0
01001 0
01010 0
01011 0
01100 0
01101 0
01110 0
01111 1
10000 0
10001 0
10010 1
10011 1
10100 0
10101 0
10110 1
10111 1
11000 0
11001 0
11010 1
11011 1
11100 0
11101 0
11110 1
11111 1

# 11 ERK 
.n 11 2 32 38
00 0
01 0
10 0
11 1

# 12 Fas 
.n 12 3 13 14 44
000 0
001 0
010 0
011 0
100 0
101 0
110 1
111 0

# 13 FasL 
.n 13 4 11 33 34 48
0000 0
0001 1
0010 1
0011 1
0100 1
0101 1
0110 1
0111 1
1000 1
1001 1
1010 1
1011 1
1100 1
1101 1
1110 1
1111 1

# 14 FasT 
.n 14 1 34
0 0
1 1

# 15 FLIP 
.n 15 4 7 10 22 34
0000 0
0001 1
0010 0
0011 1
0100 0
0101 0
0110 0
0111 0
1000 0
1001 1
1010 1
1011 1
1100 0
1101 0
1110 0
1111 0

# 16 FYN 
.n 16 2 27 50
00 0
01 1
10 1
11 1

# 17 GAP 
.n 17 5 17 55 24 37 42
00000 0
00001 1
00010 0
00011 1
00100 0
00101 0
00110 0
00111 0
01000 0
01001 0
01010 0
01011 0
01100 0
01101 0
01110 0
01111 0
10000 0
10001 1
10010 1
10011 1
10100 0
10101 0
10110 0
10111 0
11000 0
11001 0
11010 0
11011 0
11100 0
11101 0
11110 0
11111 0

# 18 GPCR 
.n 18 1 43
0 0
1 1

# 19 GRB2 
.n 19 2 27 54
00 0
01 1
10 1
11 1

# 20 GZMB 
.n 20 3 7 22 49
000 0
001 1
010 0
011 1
100 0
101 1
110 1
111 1

# 21 IAP 
.n 21 2 4 34
00 0
01 1
10 0
11 0

# 22 IFNG 
.n 22 6 23 55 24 35 45 56
000000 0
000001 0
000010 0
000011 0
000100 0
000101 0
000110 0
000111 0
001000 0
001001 0
001010 0
001011 0
001100 0
001101 0
001110 0
001111 0
010000 0
010001 0
010010 0
010011 0
010100 0
010101 0
010110 0
010111 0
011000 0
011001 0
011010 0
011011 0
011100 0
011101 0
011110 0
011111 0
100000 0
100001 1
100010 0
100011 0
100100 0
100101 0
100110 0
100111 0
101000 1
101001 1
101010 0
101011 0
101100 0
101101 0
101110 0
101111 0
110000 1
110001 1
110010 0
110011 0
110100 0
110101 0
110110 0
110111 0
111000 1
111001 1
111010 0
111011 0
111100 0
111101 0
111110 0
111111 0

# 23 IFNGT 
.n 23 3 33 48 49
000 0
001 1
010 1
011 1
100 1
101 1
110 1
111 1

# 24 IL2 
.n 24 4 33 34 48 49
0000 0
0001 0
0010 1
0011 0
0100 1
0101 0
0110 1
0111 0
1000 1
1001 0
1010 1
1011 0
1100 1
1101 0
1110 1
1111 0

# 25 IL2RA 
.n 25 3 24 25 26
000 0
001 1
010 0
011 0
100 1
101 1
110 0
111 0

# 26 IL2RAT 
.n 26 3 24 34 48
000 0
001 0
010 0
011 0
100 0
101 1
110 1
111 1

# 27 IL2RB 
.n 27 3 55 24 28
000 0
001 0
010 0
011 1
100 0
101 1
110 0
111 1

# 28 IL2RBT 
.n 28 2 11 49
00 0
01 0
10 0
11 1

# 29 JAK 
.n 29 6 57 22 25 27 41 46
000000 0
000001 0
000010 1
000011 0
000100 1
000101 0
000110 1
000111 0
001000 1
001001 0
001010 1
001011 0
001100 1
001101 0
001110 1
001111 0
010000 1
010001 0
010010 1
010011 0
010100 1
010101 0
010110 1
010111 0
011000 1
011001 0
011010 1
011011 0
011100 1
011101 0
011110 1
011111 0
100000 0
100001 0
100010 0
100011 0
100100 0
100101 0
100110 0
100111 0
101000 0
101001 0
101010 0
101011 0
101100 0
101101 0
101110 0
101111 0
110000 0
110001 0
110010 0
110011 0
110100 0
110101 0
110110 0
110111 0
111000 0
111001 0
111010 0
111011 0
111100 0
111101 0
111110 0
111111 0

# 30 LCK 
.n 30 4 57 27 50 54
0000 0
0001 0
0010 1
0011 0
0100 1
0101 0
0110 1
0111 0
1000 1
1001 1
1010 1
1011 1
1100 1
1101 1
1110 1
1111 1

# 31 MCL1 
.n 31 5 10 27 34 38 48
00000 0
00001 0
00010 0
00011 0
00100 0
00101 0
00110 0
00111 0
01000 0
01001 0
01010 0
01011 0
01100 0
01101 0
01110 0
01111 1
10000 0
10001 0
10010 0
10011 0
10100 0
10101 0
10110 0
10111 0
11000 0
11001 0
11010 0
11011 0
11100 0
11101 0
11110 0
11111 0

# 32 MEK 
.n 32 1 42
0 0
1 1

# 33 NFAT 
.n 33 1 38
0 0
1 1

# 34 NFKB 
.n 34 5 15 21 38 52 53
00000 0
00001 0
00010 1
00011 1
00100 1
00101 1
00110 1
00111 1
01000 0
01001 0
01010 1
01011 1
01100 1
01101 1
01110 1
01111 1
10000 0
10001 0
10010 1
10011 1
10100 1
10101 1
10110 1
10111 1
11000 0
11001 1
11010 1
11011 1
11100 1
11101 1
11110 1
11111 1

# 35 P2 
.n 35 3 22 35 58
000 0
001 0
010 1
011 0
100 1
101 0
110 1
111 0

# 36 P27 
.n 36 1 48
0 0
1 1

# 37 PDGFR 
.n 37 2 59 43
00 0
01 1
10 1
11 1

# 38 PI3K 
.n 38 2 37 42
00 0
01 1
10 1
11 1

# 39 PLCG1 
.n 39 2 19 37
00 0
01 1
10 1
11 1

# 40 Proliferation 
.n 40 2 36 48
00 0
01 1
10 0
11 0

# 41 RANTES 
.n 41 1 34
0 0
1 1

# 42 RAS 
.n 42 3 17 19 37
000 0
001 1
010 1
011 1
100 0
101 0
110 0
111 0

# 43 S1P 
.n 43 2 6 47
00 0
01 1
10 0
11 0

# 44 sFas 
.n 44 2 14 43
00 0
01 0
10 0
11 1

# 45 SMAD 
.n 45 1 18
0 0
1 1

# 46 SOCS 
.n 46 3 55 24 29
000 0
001 1
010 0
011 0
100 0
101 0
110 0
111 0

# 47 SPHK1 
.n 47 1 37
0 0
1 1

# 48 STAT3 
.n 48 1 29
0 0
1 1

# 49 TBET 
.n 49 2 29 49
00 0
01 1
10 1
11 1

# 50 TCR 
.n 50 2 8 56
00 0
01 1
10 0
11 0

# 51 TNF 
.n 51 1 34
0 0
1 1

# 52 TPL2 
.n 52 3 38 60 51
000 0
001 0
010 1
011 1
100 0
101 1
110 1
111 1

# 53 TRADD 
.n 53 3 1 21 51
000 0
001 1
010 0
011 0
100 0
101 0
110 0
111 0

# 54 ZAP70 
.n 54 2 16 30
00 0
01 1
10 0
11 0

# 55 IL15 
.n 55 0

# 56 Stimuli 
.n 56 0

# 57 CD45 
.n 57 0

# 58 Stimuli2 
.n 58 0

# 59 PDGF 
.n 59 0

# 60 TAX 
.n 60 0

.e End of file
